fil = 7;
col = 7;

bl = [
  1,2, 1,3, 1,7,
  2,1, 2,4, 2,5, 2,7,
  3,3, 3,6, 3,7,
  4,1, 4,2, 4,5, 4,7,
  5,1, 5,4, 5,7,
  6,1, 6,2, 6,3, 6,7,
  7,1, 7,6, 7,7
];

kak = array2d(1..13, 1..11, [
% Pistas horizontales:
  1,1, 1,4, 1,5, 1,6, 0,0, 16,
  2,2, 2,3, 2,6, 0,0, 0,0, 12,
  3,1, 3,2, 3,4, 3,5, 0,0, 19,
  4,3, 4,4, 4,6, 0,0, 0,0, 13,
  5,2, 5,3, 5,5, 5,6, 0,0, 15,
  6,4, 6,5, 6,6, 0,0, 0,0, 15,
  7,2, 7,3, 7,4, 7,5, 0,0, 22,
% Pistas verticales:
  1,1, 3,1, 0,0, 0,0, 0,0, 9,
  2,2, 3,2, 5,2, 7,2, 0,0, 10,
  2,3, 4,3, 5,3, 7,3, 0,0, 19,
  1,4, 3,4, 4,4, 6,4, 7,4, 23,
  1,5, 3,5, 5,5, 6,5, 7,5, 24,
  1,6, 2,6, 4,6, 6,6, 0,0, 24
]);